solution status: node limit reached
objective value:                                   27
x#1                                                 1 	(obj:0)
x#4                                                 1 	(obj:0)
x#7                                                 1 	(obj:0)
x#10                                                1 	(obj:0)
x#11                                                1 	(obj:0)
x#12                                                1 	(obj:0)
x#16                                                1 	(obj:0)
x#17                                                1 	(obj:0)
x#18                                                1 	(obj:0)
x#19                                                1 	(obj:0)
x#20                                                1 	(obj:0)
x#23                                                1 	(obj:0)
x#28                                                1 	(obj:0)
x#31                                                1 	(obj:0)
x#34                                                1 	(obj:0)
x#36                                                1 	(obj:0)
x#39                                                1 	(obj:0)
x#42                                                1 	(obj:0)
x#43                                                1 	(obj:0)
x#44                                                1 	(obj:0)
x#47                                                1 	(obj:0)
x#50                                                1 	(obj:0)
x#51                                                1 	(obj:0)
x#52                                                1 	(obj:0)
x#53                                                1 	(obj:0)
x#56                                                1 	(obj:0)
x#57                                                1 	(obj:0)
x#58                                                1 	(obj:0)
x#60                                                1 	(obj:0)
x#64                                                1 	(obj:0)
x#66                                                1 	(obj:0)
x#67                                                1 	(obj:0)
x#69                                                1 	(obj:0)
x#71                                                1 	(obj:0)
x#72                                                1 	(obj:0)
x#73                                                1 	(obj:0)
x#74                                                1 	(obj:0)
x#78                                                1 	(obj:0)
x#79                                                1 	(obj:0)
x#80                                                1 	(obj:0)
x#81                                                1 	(obj:0)
x#83                                                1 	(obj:0)
x#86                                                1 	(obj:0)
x#90                                                1 	(obj:0)
x#91                                                1 	(obj:0)
x#92                                                1 	(obj:0)
x#94                                                1 	(obj:0)
x#95                                                1 	(obj:0)
x#96                                                1 	(obj:0)
x#98                                                1 	(obj:0)
x#99                                                1 	(obj:0)
x#100                                               1 	(obj:0)
x#102                                               1 	(obj:0)
x#104                                               1 	(obj:0)
x#108                                               1 	(obj:0)
x#109                                               1 	(obj:0)
x#113                                               1 	(obj:0)
x#116                                               1 	(obj:0)
x#117                                               1 	(obj:0)
x#119                                               1 	(obj:0)
x#122                                               1 	(obj:0)
z#7                                                 1 	(obj:1)
z#11                                                1 	(obj:1)
z#18                                                1 	(obj:1)
z#19                                                1 	(obj:1)
z#20                                                1 	(obj:1)
z#23                                                1 	(obj:1)
z#34                                                1 	(obj:1)
z#36                                                1 	(obj:1)
z#39                                                1 	(obj:1)
z#42                                                1 	(obj:1)
z#43                                                1 	(obj:1)
z#44                                                1 	(obj:1)
z#53                                                1 	(obj:1)
z#67                                                1 	(obj:1)
z#69                                                1 	(obj:1)
z#71                                                1 	(obj:1)
z#73                                                1 	(obj:1)
z#74                                                1 	(obj:1)
z#79                                                1 	(obj:1)
z#83                                                1 	(obj:1)
z#86                                                1 	(obj:1)
z#90                                                1 	(obj:1)
z#92                                                1 	(obj:1)
z#96                                                1 	(obj:1)
z#104                                               1 	(obj:1)
z#113                                               1 	(obj:1)
z#119                                               1 	(obj:1)
